\ENCODING=ISO-8859-1
\Problem name: blend2.mps

Maximize
 VV1: 0 VV276            + 0 VV277            + 0 VV278            + 0 VV279            + 0 VV280            + 0 VV281            + 0 VV282            + 0 VV283            + 0 VV284            + 0 VV285            + 0 VV286            + 0 VV287            + 0 VV288            + 0 VV289            + 0 VV290            + 0 VV291            + 0 VV292            + 0 VV293            + 0 VV294            + 0 VV295            + 0 VV296            + 0 VV297            + 0 VV298            + 0 VV299            + 0 VV300            + 0 VV301            + 0 VV302            + 0 VV303            + 0 VV304            + 0 VV305            + 0 VV306            + 0 VV307            + 0 VV308            + 0 VV309            + 0 VV310            + 0 VV311            + 0 VV312            + 0 VV313            + 0 VV314            + 0 VV315            + 0 VV316            + 0 VV317            + 0 VV318            + 0 VV319            + 0 VV320            + 0 VV321            + 0 VV322            + 0 VV323            + 0 VV324            + 0 VV325            + 0 VV326            + 0 VV327            + 0 VV328            + 0 VV329            + 0 VV330            + 0 VV331            + 0 VV332            + 0 VV333            + 0 VV334            + 0 VV335            + 0 VV336            + 0 VV337            + 0 VV338            + 0 VV339            + 0 VV340            + 0 VV341            + 0 VV342            + 0 VV343            + 0 VV344            + 0 VV345            + 0 VV346            + 0 VV347            + 0 VV348            + 0 VV349            + 0 VV350            + 0 VV351            + 0 VV352            + 0 VV353            + 0 VV354            + 0 VV355            + 0 VV356            + 0 VV357            + 0 VV358            + 0 VV359            + 0 VV360            + 0 VV361            + 0 VV362            + 0 VV363            + 0 VV364            + 0 VV365            + 0 VV366            + 0 VV367            + 0 VV368            + 0 VV369            + 0 VV370            + 0 VV371            + 0 VV372            + 0 VV373            + 0 VV374            + 0 VV375            + 0 VV376            + 0 VV377            + 0 VV378            + 0 VV379            + 0 VV380            + 0 VV381            + 0 VV382            + 0 VV383            + 0 VV384            + 0 VV385            + 0 VV386            + 0 VV387            + 0 VV388            + 0 VV389            + 0 VV390            + 0 VV391            + 0 VV392            + 0 VV393            + 0 VV394            + 0 VV395            + 0 VV396            + 0 VV397            + 0 VV398            + 0 VV399            + 0 VV400            + 0 VV401            + 0 VV402            + 0 VV403            + 0 VV404            + 0 VV405            + 0 VV406            + 0 VV407            + 0 VV408            + 0 VV409            + 0 VV410            + 0 VV411            + 0 VV412            + 0 VV413            + 0 VV414            + 0 VV415            + 0 VV416            + 0 VV417            + 0 VV418            + 0 VV419            + 0 VV420            + 0 VV421            + 0 VV422            + 0 VV423            + 0 VV424            + 0 VV425            + 0 VV426            + 0 VV427            + 0 VV428            + 0 VV429            + 0 VV430            + 0 VV431            + 0 VV432            + 0 VV433            + 0 VV434            + 0 VV435            + 0 VV436            + 0 VV437            + 0 VV438            + 0 VV439            + 0 VV440            + 0 VV441            + 0 VV442            + 0 VV443            + 0 VV444            + 0 VV445            + 0 VV446            + 0 VV447            + 0 VV448            + 0 VV449            + 0 VV450            + 0 VV451            + 0 VV452            + 0 VV453            + 0 VV454            + 0 VV455            + 0 VV456            + 0 VV457            + 0 VV458            + 0 VV459            + 0 VV460            + 0 VV461            + 0 VV462            + 0 VV463            + 0 VV464            + 0 VV465            + 0 VV466            + 0 VV467            + 0 VV468            + 0 VV469            + 0 VV470            + 0 VV471            + 0 VV472            + 0 VV473            + 0 VV474            + 0 VV475            + 0 VV476            + 0 VV477            + 0 VV478            + 0 VV479            + 0 VV480            + 0 VV481            + 0 VV482            + 0 VV483            + 0 VV484            + 0 VV485            + 0 VV486            + 0 VV487            + 0 VV488            + 0 VV489            + 0 VV490            + 0 VV491            + 0 VV492            + 0 VV493            + 0 VV494            + 0 VV495            + 0 VV496            + 0 VV497            + 0 VV498            + 0 VV499            + 0 VV500            + 0 VV501            + 0 VV502            + 0 VV503            + 0 VV504            + 0 VV505            + 0 VV506            + 0 VV507            + 0 VV508            + 0 VV509            + 0 VV510            + 0 VV511            + 0 VV512            + 0 VV513            + 0 VV514            + 0 VV515            + 0 VV516            + 0 VV517            + 0 VV518            + 0 VV519            + 0 VV520            + 0 VV521            + 0 VV522            + 0 VV523            + 0 VV524            + 0 VV525            + 0 VV526            + 0 VV527            + 0 VV528            + 0 VV529            + 0 VV530            + 0 VV531            + 0 VV532            + 0 VV533            + 0 VV534            + 0 VV535            + 0 VV536            + 0 VV537            + 0 VV538            + 0 VV539            + 0 VV540            + 0.537756 VV541            + 0.698853 VV542            + 0.50276 VV543            + 0.895022 VV544            + 1.743451 VV545            + 0.942649 VV546            + 1.830058 VV547            + 0.895022 VV548            + 1.161897 VV549            + 2.63988 VV550            + 0.687402 VV551            + 0.502796 VV552            + 3.85769 VV553            + 0.502796 VV554            + 1.502445 VV555            + 2.527007 VV556            + 1.502445 VV557            + 0.613929 VV558            + 2.109085 VV559            + 2.417521 VV560            + 1.042655 VV561            + 0.587534 VV562            + 0.808229 VV563            + 0.994499 VV564            + 0.50276 VV565            + 0.732566 VV566            + 0.587534 VV567            + 3.308961 VV568            + 4.697755 VV569            + 3.85769 VV570            + 0.994499 VV571            + 0.750942 VV572            + 4.697755 VV573            + 3.000857 VV574            + 1.438391 VV575            + 0.50276 VV576            + 0.587534 VV577            + 0.525196 VV578            + 0.639556 VV579            + 4.697755 VV580            + 2.433549 VV581            + 0.948479 VV582            + 1.199801 VV583            + 0.609059 VV584            + 0.50276 VV585            + 0.718052 VV586            + 0.507716 VV587            + 3.415212 VV588            + 1.569899 VV589            + 1.161897 VV590            + 3.101773 VV591            + 0.994499 VV592            + 0.515061 VV593            + 0.613929 VV594            + 13.458794 VV595            + 5.618654 VV596            + 3.204477 VV597            + 1.314989 VV598            + 0.823386 VV599            + 0.63289 VV600            + 0.769018 VV601            + 1.502445 VV602            + 1.502445 VV603            + 0.862908 VV604            + 0.502796 VV605            + 9.264861 VV606            + 23.501588 VV607            + 14.501741 VV608            + 6.324203 VV609            + 4.089271 VV610            + 0.63289 VV611            + 0.525196 VV612            + 2.875916 VV613            + 3.000857 VV614            + 1.438391 VV615            + 0.750942 VV616            + 0.502796 VV617            + 0.993126 VV618            + 9.264861 VV619            + 4.824437 VV620            + 3.000857 VV621            + 4.572721 VV622            + 2.345465 VV623            + 0.862908 VV624            + 0.515061 VV625            + 0.808229 VV626            + 5.472803 VV627            + 24.014225 VV628 
Subject To
 VV2:   - 1000 VV276 - 609 VV364 + VV452  = 0
 VV3:   - 1000 VV277 - 908 VV365 + VV453  = 0
 VV4:   - 1000 VV278 - 574 VV366 + VV454  = 0
 VV5:   - 1000 VV279 - 100 VV367 + VV455  = 0
 VV6:   - 1000 VV280 - 71 VV368 + VV456  = 0
 VV7:   - 1000 VV281 - 424 VV369 + VV457  = 0
 VV8:   - 1000 VV282 - 400 VV370 + VV458  = 0
 VV9:   - 1000 VV283 - 339 VV371 + VV459  = 0
 VV10:  - 1000 VV284 - 383 VV372 + VV460  = 0
 VV11:  - 1000 VV285 - 906 VV373 + VV461  = 0
 VV12:  - 1000 VV286 + VV462  = 0
 VV13:  - 1000 VV287 - 86 VV375 + VV463  = 0
 VV14:  - 1000 VV288 + VV464  = 0
 VV15:  - 1000 VV289 - 57 VV377 + VV465  = 0
 VV16:  - 1000 VV290 - 64 VV378 + VV466  = 0
 VV17:  - 1000 VV291 - 958 VV379 + VV467  = 0
 VV18:  - 1000 VV292 - 467 VV380 + VV468  = 0
 VV19:  - 1000 VV293 - 228 VV381 + VV469  = 0
 VV20:  - 1000 VV294 - 270 VV382 + VV470  = 0
 VV21:  - 1000 VV295 - 129 VV383 + VV471  = 0
 VV22:  - 1000 VV296 - 941 VV384 + VV472  = 0
 VV23:  - 1000 VV297 - 934 VV385 + VV473  = 0
 VV24:  - 1000 VV298 - 354 VV386 + VV474  = 0
 VV25:  - 1000 VV299 - 678 VV387 + VV475  = 0
 VV26:  - 1000 VV300 - 128 VV388 + VV476  = 0
 VV27:  - 1000 VV301 - 646 VV389 + VV477  = 0
 VV28:  - 1000 VV302 - 500 VV390 + VV478  = 0
 VV29:  - 1000 VV303 - 200 VV391 + VV479  = 0
 VV30:  - 1000 VV304 - 600 VV392 + VV480  = 0
 VV31:  - 1000 VV305 + VV481  = 0
 VV32:  - 1000 VV306 - 66 VV394 + VV482  = 0
 VV33:  - 1000 VV307 - 903 VV395 + VV483  = 0
 VV34:  - 1000 VV308 + VV484  = 0
 VV35:  - 1000 VV309 - 60 VV397 + VV485  = 0
 VV36:  - 1000 VV310 - 843 VV398 + VV486  = 0
 VV37:  - 1000 VV311 + VV487  = 0
 VV38:  - 1000 VV312 - 172 VV400 + VV488  = 0
 VV39:  - 1000 VV313 - 468 VV401 + VV489  = 0
 VV40:  - 1000 VV314 - 715 VV402 + VV490  = 0
 VV41:  - 1000 VV315 - 633 VV403 + VV491  = 0
 VV42:  - 1000 VV316 - 156 VV404 + VV492  = 0
 VV43:  - 1000 VV317 - 279 VV405 + VV493  = 0
 VV44:  - 1000 VV318 - 625 VV406 + VV494  = 0
 VV45:  - 1000 VV319 - 350 VV407 + VV495  = 0
 VV46:  - 1000 VV320 - 828 VV408 + VV496  = 0
 VV47:  - 1000 VV321 - 41 VV409 + VV497  = 0
 VV48:  - 1000 VV322 - 443 VV410 + VV498  = 0
 VV49:  - 1000 VV323 - 568 VV411 + VV499  = 0
 VV50:  - 1000 VV324 - 952 VV412 + VV500  = 0
 VV51:  - 1000 VV325 + VV501  = 0
 VV52:  - 1000 VV326 - 437 VV414 + VV502  = 0
 VV53:  - 1000 VV327 - 197 VV415 + VV503  = 0
 VV54:  - 1000 VV328 - 420 VV416 + VV504  = 0
 VV55:  - 1000 VV329 - 995 VV417 + VV505  = 0
 VV56:  - 1000 VV330 - 498 VV418 + VV506  = 0
 VV57:  - 1000 VV331 - 580 VV419 + VV507  = 0
 VV58:  - 1000 VV332 - 883 VV420 + VV508  = 0
 VV59:  - 1000 VV333 - 328 VV421 + VV509  = 0
 VV60:  - 1000 VV334 - 52 VV422 + VV510  = 0
 VV61:  - 1000 VV335 - 332 VV423 + VV511  = 0
 VV62:  - 1000 VV336 - 998 VV424 + VV512  = 0
 VV63:  - 1000 VV337 - 895 VV425 + VV513  = 0
 VV64:  - 1000 VV338 - 870 VV426 + VV514  = 0
 VV65:  - 1000 VV339 - 605 VV427 + VV515  = 0
 VV66:  - 1000 VV340 - 430 VV428 + VV516  = 0
 VV67:  - 1000 VV341 - 863 VV429 + VV517  = 0
 VV68:  - 1000 VV342 - 299 VV430 + VV518  = 0
 VV69:  - 1000 VV343 - 522 VV431 + VV519  = 0
 VV70:  - 1000 VV344 + VV520  = 0
 VV71:  - 1000 VV345 - 455 VV433 + VV521  = 0
 VV72:  - 1000 VV346 + VV522  = 0
 VV73:  - 1000 VV347 - 830 VV435 + VV523  = 0
 VV74:  - 1000 VV348 + VV524  = 0
 VV75:  - 1000 VV349 - 768 VV437 + VV525  = 0
 VV76:  - 1000 VV350 - 787 VV438 + VV526  = 0
 VV77:  - 1000 VV351 - 890 VV439 + VV527  = 0
 VV78:  - 1000 VV352 - 844 VV440 + VV528  = 0
 VV79:  - 1000 VV353 - 914 VV441 + VV529  = 0
 VV80:  - 1000 VV354 - 922 VV442 + VV530  = 0
 VV81:  - 1000 VV355 - 775 VV443 + VV531  = 0
 VV82:  - 1000 VV356 - 616 VV444 + VV532  = 0
 VV83:  - 1000 VV357 - 850 VV445 + VV533  = 0
 VV84:  - 1000 VV358 - 832 VV446 + VV534  = 0
 VV85:  - 1000 VV359 - 770 VV447 + VV535  = 0
 VV86:  - 1000 VV360 - 450 VV448 + VV536  = 0
 VV87:  - 1000 VV361 - 9 VV449 + VV537  = 0
 VV88:  - 1000 VV362 - 60 VV450 + VV538  = 0
 VV89:  - 1000 VV363 - 685 VV451 + VV539  = 0
 VV90:  VV452 - 1609 VV541 <= 0
 VV91:  VV453 - 2908 VV542 <= 0
 VV92:  VV454 - 1574 VV543 <= 0
 VV93:  VV455 - 100 VV544 <= 0
 VV94:  VV456 - 1071 VV545 <= 0
 VV95:  VV457 - 1424 VV546 <= 0
 VV96:  VV458 - 2400 VV547 <= 0
 VV97:  VV459 - 1339 VV548 <= 0
 VV98:  VV460 - 1383 VV549 <= 0
 VV99:  VV461 - 906 VV550 <= 0
 VV100: VV462 - 1000 VV551 <= 0
 VV101: VV463 - 1086 VV552 <= 0
 VV102: VV464 - 3000 VV553 <= 0
 VV103: VV465 - 2057 VV554 <= 0
 VV104: VV466 - 2064 VV555 <= 0
 VV105: VV467 - 1958 VV556 <= 0
 VV106: VV468 - 1467 VV557 <= 0
 VV107: VV469 - 2228 VV558 <= 0
 VV108: VV470 - 2270 VV559 <= 0
 VV109: VV471 - 2129 VV560 <= 0
 VV110: VV472 - 1941 VV561 <= 0
 VV111: VV473 - 1934 VV562 <= 0
 VV112: VV474 - 354 VV563 <= 0
 VV113: VV475 - 1678 VV564 <= 0
 VV114: VV476 - 3128 VV565 <= 0
 VV115: VV477 - 1646 VV566 <= 0
 VV116: VV478 - 500 VV567 <= 0
 VV117: VV479 - 1200 VV568 <= 0
 VV118: VV480 - 600 VV569 <= 0
 VV119: VV481 - 1000 VV570 <= 0
 VV120: VV482 - 1066 VV571 <= 0
 VV121: VV483 - 1903 VV572 <= 0
 VV122: VV484 - 3000 VV573 <= 0
 VV123: VV485 - 2060 VV574 <= 0
 VV124: VV486 - 843 VV575 <= 0
 VV125: VV487 - 1000 VV576 <= 0
 VV126: VV488 - 1172 VV577 <= 0
 VV127: VV489 - 1468 VV578 <= 0
 VV128: VV490 - 1715 VV579 <= 0
 VV129: VV491 - 2633 VV580 <= 0
 VV130: VV492 - 1156 VV581 <= 0
 VV131: VV493 - 1279 VV582 <= 0
 VV132: VV494 - 1625 VV583 <= 0
 VV133: VV495 - 1350 VV584 <= 0
 VV134: VV496 - 1828 VV585 <= 0
 VV135: VV497 - 1041 VV586 <= 0
 VV136: VV498 - 1443 VV587 <= 0
 VV137: VV499 - 3568 VV588 <= 0
 VV138: VV500 - 1952 VV589 <= 0
 VV139: VV501 - 1000 VV590 <= 0
 VV140: VV502 - 5437 VV591 <= 0
 VV141: VV503 - 1197 VV592 <= 0
 VV142: VV504 - 1420 VV593 <= 0
 VV143: VV505 - 995 VV594 <= 0
 VV144: VV506 - 1498 VV595 <= 0
 VV145: VV507 - 4580 VV596 <= 0
 VV146: VV508 - 3883 VV597 <= 0
 VV147: VV509 - 1328 VV598 <= 0
 VV148: VV510 - 1052 VV599 <= 0
 VV149: VV511 - 1332 VV600 <= 0
 VV150: VV512 - 1998 VV601 <= 0
 VV151: VV513 - 895 VV602 <= 0
 VV152: VV514 - 1870 VV603 <= 0
 VV153: VV515 - 1605 VV604 <= 0
 VV154: VV516 - 1430 VV605 <= 0
 VV155: VV517 - 1863 VV606 <= 0
 VV156: VV518 - 2299 VV607 <= 0
 VV157: VV519 - 1522 VV608 <= 0
 VV158: VV520 - 3000 VV609 <= 0
 VV159: VV521 - 4455 VV610 <= 0
 VV160: VV522 - 2000 VV611 <= 0
 VV161: VV523 - 1830 VV612 <= 0
 VV162: VV524 - 1000 VV613 <= 0
 VV163: VV525 - 3768 VV614 <= 0
 VV164: VV526 - 1787 VV615 <= 0
 VV165: VV527 - 1890 VV616 <= 0
 VV166: VV528 - 1844 VV617 <= 0
 VV167: VV529 - 1914 VV618 <= 0
 VV168: VV530 - 1922 VV619 <= 0
 VV169: VV531 - 4775 VV620 <= 0
 VV170: VV532 - 1616 VV621 <= 0
 VV171: VV533 - 1850 VV622 <= 0
 VV172: VV534 - 1832 VV623 <= 0
 VV173: VV535 - 1770 VV624 <= 0
 VV174: VV536 - 1450 VV625 <= 0
 VV175: VV537 - 2009 VV626 <= 0
 VV176: VV538 - 2060 VV627 <= 0
 VV177: VV539 - 2685 VV628 <= 0
 VV178: - VV452 - VV453 - VV454 - VV455 - VV456 - VV457 - VV458 - VV459 - VV460
        - VV461 - VV462 - VV463 - VV464 - VV465 - VV466 - VV467 - VV468 - VV469
        - VV470 - VV471 - VV472 - VV473 - VV474 - VV475 - VV476 - VV477 - VV478
        - VV479 - VV480 - VV481 - VV482 - VV483 - VV484 - VV485 - VV486 - VV487
        - VV488 - VV489 - VV490 - VV491 - VV492 - VV493 - VV494 - VV495 - VV496
        - VV497 - VV498 - VV499 - VV500 - VV501 - VV502 - VV503 - VV504 - VV505
        - VV506 - VV507 - VV508 - VV509 - VV510 - VV511 - VV512 - VV513 - VV514
        - VV515 - VV516 - VV517 - VV518 - VV519 - VV520 - VV521 - VV522 - VV523
        - VV524 - VV525 - VV526 - VV527 - VV528 - VV529 - VV530 - VV531 - VV532
        - VV533 - VV534 - VV535 - VV536 - VV537 - VV538 - VV539 + VV540  = 0
 VV179: 1.763519 VV452 + 1.658312 VV453 + 1.830301 VV454 + 1.749286 VV455
        + 1.649242 VV456 + 1.734935 VV457 + 1.581139 VV458 + 1.676305 VV459
        + 1.74069 VV460 + 1.615549 VV461 + 1.959592 VV462 + 1.819341 VV463
        + 2.118962 VV464 + 1.794436 VV465 + 1.581139 VV466 + 1.615549 VV467
        + 1.67332 VV468 + 1.734935 VV469 + 1.612452 VV470 + 1.691153 VV471
        + 2.55147 VV472 + 1.852026 VV473 + 2.204541 VV474 + 1.926136 VV475
        + 1.777639 VV476 + 2.063977 VV477 + 1.67332 VV478 + 2.19089 VV479
        + 2.022375 VV480 + 2.193171 VV481 + 2.453569 VV482 + 2.569047 VV483
        + 2.03224 VV484 + 2.140093 VV485 + 1.923538 VV486 + 2.218107 VV487
        + 1.918333 VV488 + 1.752142 VV489 + 1.881489 VV490 + 2.078461 VV491
        + 2.184033 VV492 + 2.362202 VV493 + 2.278157 VV494 + 2.366432 VV495
        + 2.289105 VV496 + 2 VV497 + 2.039608 VV498 + 2.142429 VV499
        + 2.319483 VV500 + 2.304344 VV501 + 2.22036 VV502 + 2.48998 VV503
        + 2.565151 VV504 + 2.673948 VV505 + 1.545962 VV506 + 2 VV507
        + 2.211334 VV508 + 2.453569 VV509 + 2.485961 VV510 + 2.611513 VV511
        + 2.605763 VV512 + 2.447448 VV513 + 2.416609 VV514 + 2.039608 VV515
        + 2.280351 VV516 + 1.841195 VV517 + 1.5 VV518 + 1.664332 VV519
        + 2.063977 VV520 + 2.19089 VV521 + 1.941649 VV522 + 2 VV523
        + 2.238303 VV524 + 2.227106 VV525 + 2.416609 VV526 + 2.624881 VV527
        + 2.673948 VV528 + 2.572936 VV529 + 1.609348 VV530 + 2.090454 VV531
        + 2.244994 VV532 + 2.135416 VV533 + 2.381176 VV534 + 2.6 VV535
        + 2.437212 VV536 + 2.059126 VV537 + 1.931321 VV538 + 1.414214 VV539
        - 2.156386 VV540 >= 0
 VV180: 1.763519 VV452 + 1.658312 VV453 + 1.830301 VV454 + 1.749286 VV455
        + 1.649242 VV456 + 1.734935 VV457 + 1.581139 VV458 + 1.676305 VV459
        + 1.74069 VV460 + 1.615549 VV461 + 1.959592 VV462 + 1.819341 VV463
        + 2.118962 VV464 + 1.794436 VV465 + 1.581139 VV466 + 1.615549 VV467
        + 1.67332 VV468 + 1.734935 VV469 + 1.612452 VV470 + 1.691153 VV471
        + 2.55147 VV472 + 1.852026 VV473 + 2.204541 VV474 + 1.926136 VV475
        + 1.777639 VV476 + 2.063977 VV477 + 1.67332 VV478 + 2.19089 VV479
        + 2.022375 VV480 + 2.193171 VV481 + 2.453569 VV482 + 2.569047 VV483
        + 2.03224 VV484 + 2.140093 VV485 + 1.923538 VV486 + 2.218107 VV487
        + 1.918333 VV488 + 1.752142 VV489 + 1.881489 VV490 + 2.078461 VV491
        + 2.184033 VV492 + 2.362202 VV493 + 2.278157 VV494 + 2.366432 VV495
        + 2.289105 VV496 + 2 VV497 + 2.039608 VV498 + 2.142429 VV499
        + 2.319483 VV500 + 2.304344 VV501 + 2.22036 VV502 + 2.48998 VV503
        + 2.565151 VV504 + 2.673948 VV505 + 1.545962 VV506 + 2 VV507
        + 2.211334 VV508 + 2.453569 VV509 + 2.485961 VV510 + 2.611513 VV511
        + 2.605763 VV512 + 2.447448 VV513 + 2.416609 VV514 + 2.039608 VV515
        + 2.280351 VV516 + 1.841195 VV517 + 1.5 VV518 + 1.664332 VV519
        + 2.063977 VV520 + 2.19089 VV521 + 1.941649 VV522 + 2 VV523
        + 2.238303 VV524 + 2.227106 VV525 + 2.416609 VV526 + 2.624881 VV527
        + 2.673948 VV528 + 2.572936 VV529 + 1.609348 VV530 + 2.090454 VV531
        + 2.244994 VV532 + 2.135416 VV533 + 2.381176 VV534 + 2.6 VV535
        + 2.437212 VV536 + 2.059126 VV537 + 1.931321 VV538 + 1.414214 VV539
        - 2.161018 VV540 <= 0
 VV181: 14.03567 VV452 + 13.78405 VV453 + 14.177448 VV454 + 13.601471 VV455
        + 13.114877 VV456 + 13.564661 VV457 + 13.076698 VV458 + 13.601471 VV459
        + 13.416408 VV460 + 12.767146 VV461 + 14.662879 VV462 + 14.282857 VV463
        + 16.062377 VV464 + 14.282857 VV465 + 13.228757 VV466 + 12.806248 VV467
        + 13.228757 VV468 + 13.892444 VV469 + 12.961482 VV470 + 12.845233 VV471
        + 14.96663 VV472 + 14.525839 VV473 + 13.674795 VV474 + 14.933185 VV475
        + 14.177448 VV476 + 13.747728 VV477 + 14.525839 VV478 + 15.905975 VV479
        + 16.278821 VV480 + 16.062377 VV481 + 14.933185 VV482 + 14.73092 VV483
        + 16.278821 VV484 + 15.811388 VV485 + 15.198684 VV486 + 14.177448 VV487
        + 14.525839 VV488 + 14.071248 VV489 + 13.856407 VV490 + 16.278821 VV491
        + 15.620499 VV492 + 14.899664 VV493 + 15.066519 VV494 + 14.56022 VV495
        + 14.177448 VV496 + 14.696938 VV497 + 14.317821 VV498 + 15.937377 VV499
        + 15.264338 VV500 + 13.416408 VV501 + 15.842981 VV502 + 14.933185 VV503
        + 14.352701 VV504 + 13.892444 VV505 + 10.630146 VV506 + 16.492422 VV507
        + 15.874508 VV508 + 15.132746 VV509 + 14.798649 VV510 + 14.59452 VV511
        + 13.71131 VV512 + 13.228757 VV513 + 13.228757 VV514 + 14.832398 VV515
        + 14.282857 VV516 + 11.269429 VV517 + 9.433981 VV518 + 10.488088 VV519
        + 16.643316 VV520 + 16.124515 VV521 + 14.59452 VV522 + 14.071248 VV523
        + 12.688578 VV524 + 15.811388 VV525 + 15.198684 VV526 + 14.73092 VV527
        + 14.282857 VV528 + 13.52775 VV529 + 11.269429 VV530 + 16.309505 VV531
        + 15.811388 VV532 + 16.248077 VV533 + 15.588458 VV534 + 14.832398 VV535
        + 14.352701 VV536 + 13.674795 VV537 + 12 VV538 + 9.380832 VV539
        - 14.142136 VV540 >= 0
 VV182: 14.03567 VV452 + 13.78405 VV453 + 14.177448 VV454 + 13.601471 VV455
        + 13.114877 VV456 + 13.564661 VV457 + 13.076698 VV458 + 13.601471 VV459
        + 13.416408 VV460 + 12.767146 VV461 + 14.662879 VV462 + 14.282857 VV463
        + 16.062377 VV464 + 14.282857 VV465 + 13.228757 VV466 + 12.806248 VV467
        + 13.228757 VV468 + 13.892444 VV469 + 12.961482 VV470 + 12.845233 VV471
        + 14.96663 VV472 + 14.525839 VV473 + 13.674795 VV474 + 14.933185 VV475
        + 14.177448 VV476 + 13.747728 VV477 + 14.525839 VV478 + 15.905975 VV479
        + 16.278821 VV480 + 16.062377 VV481 + 14.933185 VV482 + 14.73092 VV483
        + 16.278821 VV484 + 15.811388 VV485 + 15.198684 VV486 + 14.177448 VV487
        + 14.525839 VV488 + 14.071248 VV489 + 13.856407 VV490 + 16.278821 VV491
        + 15.620499 VV492 + 14.899664 VV493 + 15.066519 VV494 + 14.56022 VV495
        + 14.177448 VV496 + 14.696938 VV497 + 14.317821 VV498 + 15.937377 VV499
        + 15.264338 VV500 + 13.416408 VV501 + 15.842981 VV502 + 14.933185 VV503
        + 14.352701 VV504 + 13.892444 VV505 + 10.630146 VV506 + 16.492422 VV507
        + 15.874508 VV508 + 15.132746 VV509 + 14.798649 VV510 + 14.59452 VV511
        + 13.71131 VV512 + 13.228757 VV513 + 13.228757 VV514 + 14.832398 VV515
        + 14.282857 VV516 + 11.269429 VV517 + 9.433981 VV518 + 10.488088 VV519
        + 16.643316 VV520 + 16.124515 VV521 + 14.59452 VV522 + 14.071248 VV523
        + 12.688578 VV524 + 15.811388 VV525 + 15.198684 VV526 + 14.73092 VV527
        + 14.282857 VV528 + 13.52775 VV529 + 11.269429 VV530 + 16.309505 VV531
        + 15.811388 VV532 + 16.248077 VV533 + 15.588458 VV534 + 14.832398 VV535
        + 14.352701 VV536 + 13.674795 VV537 + 12 VV538 + 9.380832 VV539
        - 14.317821 VV540 <= 0
 VV183: 10.300001 VV452 + 10.58 VV453 + 10.430001 VV454 + 10.210001 VV455
        + 10.28 VV456 + 9.520001 VV457 + 10.78 VV458 + 9.7 VV459 + 10.65 VV460
        + 10.220001 VV461 + 10.420001 VV462 + 10.420001 VV463 + 10.020001 VV464
        + 10.11 VV465 + 10.19 VV466 + 10.270001 VV467 + 10.800001 VV468
        + 10.840001 VV469 + 10.130001 VV470 + 9.83 VV471 + 11.270001 VV472
        + 10.65 VV473 + 10.54 VV474 + 11.99 VV475 + 11.390001 VV476
        + 11.800001 VV477 + 10.36 VV478 + 11.62 VV479 + 11.560001 VV480
        + 10.53 VV481 + 11.9 VV482 + 11.04 VV483 + 10.62 VV484 + 11.62 VV485
        + 10.760001 VV486 + 11.11 VV487 + 10.680001 VV488 + 10.800001 VV489
        + 10.090001 VV490 + 9.74 VV491 + 10.060001 VV492 + 10.390001 VV493
        + 10.720001 VV494 + 10.98 VV495 + 11.28 VV496 + 10.49 VV497
        + 10.99 VV498 + 10.550001 VV499 + 10.83 VV500 + 10.810001 VV501
        + 11.020001 VV502 + 10.800001 VV503 + 10.82 VV504 + 11.12 VV505
        + 10.48 VV506 + 10.65 VV507 + 10.69 VV508 + 10.49 VV509
        + 10.560001 VV510 + 10.9 VV511 + 10.94 VV512 + 10.65 VV513
        + 10.83 VV514 + 11.08 VV515 + 11.44 VV516 + 9.800001 VV517
        + 10.24 VV518 + 9.99 VV519 + 11.57 VV520 + 11.24 VV521
        + 10.970001 VV522 + 10.890001 VV523 + 10.130001 VV524 + 11.090001 VV525
        + 11.12 VV526 + 11.590001 VV527 + 11.41 VV528 + 11.550001 VV529
        + 10.08 VV530 + 11 VV531 + 10.010001 VV532 + 10.87 VV533 + 10.65 VV534
        + 11.03 VV535 + 10.680001 VV536 + 10.53 VV537 + 10.720001 VV538
        + 10.44 VV539 - 11.2 VV540 <= 0
 VV184: 5.75 VV452 + 7.25 VV453 + 5 VV454 + 6.25 VV455 + 6.75 VV456
        + 5.75 VV457 + 5.75 VV458 + 6.25 VV459 + 4.75 VV460 + 5.25 VV461
        + 5 VV462 + 5.25 VV463 + 2.25 VV464 + 5.5 VV465 + 7 VV466 + 7.5 VV467
        + 6.5 VV468 + 5.5 VV469 + 6.25 VV470 + 6.5 VV471 + 3.25 VV472
        + 5.25 VV473 + 3 VV474 + 3.5 VV475 + 4.25 VV476 + 4.25 VV477
        + 4.25 VV478 + 1.75 VV479 + 1.75 VV480 + 2.25 VV481 + 3 VV482
        + 3.5 VV483 + 1.75 VV484 + 1.75 VV485 + 2.5 VV486 + 2.75 VV487
        + 4.75 VV488 + 6 VV489 + 6 VV490 + 2.5 VV491 + 3 VV492 + 3.75 VV493
        + 2.25 VV494 + 2.75 VV495 + 3.25 VV496 + 3.5 VV497 + 4.25 VV498
        + 2.5 VV499 + 3 VV500 + 3.75 VV501 + 2.75 VV502 + 3.25 VV503 + 4 VV504
        + 4.5 VV505 + 6.75 VV506 + 1.75 VV507 + 1.75 VV508 + 2.25 VV509
        + 2.75 VV510 + 3.25 VV511 + 3.75 VV512 + 4.75 VV513 + 2.75 VV514
        + 1.75 VV515 + 2.25 VV516 + 4.5 VV517 + 5.25 VV518 + 4.75 VV519
        + 1.75 VV520 + 1.75 VV521 + 3.75 VV522 + 4.25 VV523 + 5 VV524
        + 2.25 VV525 + 2.75 VV526 + 3.25 VV527 + 4.25 VV528 + 4.25 VV529
        + 4.75 VV530 + 1.25 VV531 + 1.5 VV532 + 1.5 VV533 + 1.75 VV534
        + 2.25 VV535 + 2.75 VV536 + 3 VV537 + 4.75 VV538 + 6.25 VV539
        - 3.5 VV540 <= 0
 VV185: 75 VV452 + 95 VV453 + 59 VV454 + 79 VV455 + 104 VV456 + 94 VV457
        + 77 VV458 + 86 VV459 + 89 VV460 + 200 VV461 + 59 VV462 + 81 VV463
        + 4 VV464 + 95 VV465 + 129 VV466 + 180 VV467 + 92 VV468 + 72 VV469
        + 145 VV470 + 200 VV471 + 19 VV472 + 38 VV473 + 42 VV474 + 29 VV475
        + 41 VV476 + 38 VV477 + 45 VV478 + 4 VV479 + 5 VV480 + 5 VV481
        + 17 VV482 + 25 VV483 + 5 VV484 + 6 VV485 + 15 VV486 + 15 VV487
        + 54 VV488 + 79 VV489 + 72 VV490 + 6 VV491 + 10 VV492 + 15 VV493
        + 13 VV494 + 19 VV495 + 34 VV496 + 15 VV497 + 38 VV498 + 6 VV499
        + 10 VV500 + 41 VV501 + 5 VV502 + 13 VV503 + 25 VV504 + 43 VV505
        + 25 VV506 + 4 VV507 + 4 VV508 + 6 VV509 + 9 VV510 + 13 VV511
        + 30 VV512 + 37 VV513 + 44 VV514 + 7 VV515 + 12 VV516 + 55 VV517
        + 17 VV518 + 39 VV519 + 4 VV520 + 5 VV521 + 23 VV522 + 47 VV523
        + 78 VV524 + 6 VV525 + 10 VV526 + 19 VV527 + 33 VV528 + 54 VV529
        + 26 VV530 + 4 VV531 + 5 VV532 + 7 VV533 + 6 VV534 + 8 VV535 + 13 VV536
        + 31 VV537 + 21 VV538 + 13 VV539 - 30 VV540 <= 0
 VV186: 2747 VV452 + 4929 VV453 + 3018 VV454 + 2975 VV455 + 7243 VV456
        + 5017 VV457 + 5046 VV458 + 3062 VV459 + 3787 VV460 + 7075 VV461
        + 2237 VV462 + 2796 VV463 + 150 VV464 + 3493 VV465 + 5405 VV466
        + 5500 VV467 + 4566 VV468 + 2500 VV469 + 4874 VV470 + 5303 VV471
        + 150 VV472 + 2197 VV473 + 150 VV474 + 1458 VV475 + 2810 VV476
        + 2630 VV477 + 150 VV478 + 150 VV479 + 150 VV480 + 150 VV481
        + 150 VV482 + 150 VV483 + 150 VV484 + 150 VV485 + 150 VV486 + 150 VV487
        + 2177 VV488 + 3219 VV489 + 3947 VV490 + 150 VV491 + 150 VV492
        + 150 VV493 + 150 VV494 + 150 VV495 + 150 VV496 + 150 VV497 + 150 VV498
        + 150 VV499 + 150 VV500 + 150 VV501 + 150 VV502 + 150 VV503 + 150 VV504
        + 150 VV505 + 150 VV506 + 150 VV507 + 150 VV508 + 150 VV509 + 150 VV510
        + 150 VV511 + 150 VV512 + 150 VV513 + 150 VV514 + 150 VV515 + 150 VV516
        + 150 VV517 + 150 VV518 + 150 VV519 + 150 VV520 + 150 VV521 + 150 VV522
        + 150 VV523 + 150 VV524 + 150 VV525 + 150 VV526 + 150 VV527 + 150 VV528
        + 150 VV529 + 150 VV530 + 150 VV531 + 150 VV532 + 150 VV533 + 150 VV534
        + 150 VV535 + 150 VV536 + 150 VV537 + 150 VV538 + 150 VV539 - 410 VV540
        >= 0
 VV187: 2747 VV452 + 4929 VV453 + 3018 VV454 + 2975 VV455 + 7243 VV456
        + 5017 VV457 + 5046 VV458 + 3062 VV459 + 3787 VV460 + 7075 VV461
        + 2237 VV462 + 2796 VV463 + 150 VV464 + 3493 VV465 + 5405 VV466
        + 5500 VV467 + 4566 VV468 + 2500 VV469 + 4874 VV470 + 5303 VV471
        + 150 VV472 + 2197 VV473 + 150 VV474 + 1458 VV475 + 2810 VV476
        + 2630 VV477 + 150 VV478 + 150 VV479 + 150 VV480 + 150 VV481
        + 150 VV482 + 150 VV483 + 150 VV484 + 150 VV485 + 150 VV486 + 150 VV487
        + 2177 VV488 + 3219 VV489 + 3947 VV490 + 150 VV491 + 150 VV492
        + 150 VV493 + 150 VV494 + 150 VV495 + 150 VV496 + 150 VV497 + 150 VV498
        + 150 VV499 + 150 VV500 + 150 VV501 + 150 VV502 + 150 VV503 + 150 VV504
        + 150 VV505 + 150 VV506 + 150 VV507 + 150 VV508 + 150 VV509 + 150 VV510
        + 150 VV511 + 150 VV512 + 150 VV513 + 150 VV514 + 150 VV515 + 150 VV516
        + 150 VV517 + 150 VV518 + 150 VV519 + 150 VV520 + 150 VV521 + 150 VV522
        + 150 VV523 + 150 VV524 + 150 VV525 + 150 VV526 + 150 VV527 + 150 VV528
        + 150 VV529 + 150 VV530 + 150 VV531 + 150 VV532 + 150 VV533 + 150 VV534
        + 150 VV535 + 150 VV536 + 150 VV537 + 150 VV538 + 150 VV539 - 450 VV540
        <= 0
 VV188: VV364 <= 609
 VV189: VV365 <= 908
 VV190: VV366 <= 574
 VV191: VV367 <= 100
 VV192: VV368 <= 71
 VV193: VV369 <= 424
 VV194: VV370 <= 400
 VV195: VV371 <= 339
 VV196: VV372 <= 383
 VV197: VV373 <= 906
 VV198: VV374 <= 0
 VV199: VV375 <= 86
 VV200: VV376 <= 0
 VV201: VV377 <= 57
 VV202: VV378 <= 64
 VV203: VV379 <= 958
 VV204: VV380 <= 467
 VV205: VV381 <= 228
 VV206: VV382 <= 270
 VV207: VV383 <= 129
 VV208: VV384 <= 941
 VV209: VV385 <= 934
 VV210: VV386 <= 354
 VV211: VV387 <= 678
 VV212: VV388 <= 128
 VV213: VV389 <= 646
 VV214: VV390 <= 500
 VV215: VV391 <= 200
 VV216: VV392 <= 600
 VV217: VV393 <= 0
 VV218: VV394 <= 66
 VV219: VV395 <= 903
 VV220: VV396 <= 0
 VV221: VV397 <= 60
 VV222: VV398 <= 843
 VV223: VV399 <= 0
 VV224: VV400 <= 172
 VV225: VV401 <= 468
 VV226: VV402 <= 715
 VV227: VV403 <= 633
 VV228: VV404 <= 156
 VV229: VV405 <= 279
 VV230: VV406 <= 625
 VV231: VV407 <= 350
 VV232: VV408 <= 828
 VV233: VV409 <= 41
 VV234: VV410 <= 443
 VV235: VV411 <= 568
 VV236: VV412 <= 952
 VV237: VV413 <= 0
 VV238: VV414 <= 437
 VV239: VV415 <= 197
 VV240: VV416 <= 420
 VV241: VV417 <= 995
 VV242: VV418 <= 498
 VV243: VV419 <= 580
 VV244: VV420 <= 883
 VV245: VV421 <= 328
 VV246: VV422 <= 52
 VV247: VV423 <= 332
 VV248: VV424 <= 998
 VV249: VV425 <= 895
 VV250: VV426 <= 870
 VV251: VV427 <= 605
 VV252: VV428 <= 430
 VV253: VV429 <= 863
 VV254: VV430 <= 299
 VV255: VV431 <= 522
 VV256: VV432 <= 0
 VV257: VV433 <= 455
 VV258: VV434 <= 0
 VV259: VV435 <= 830
 VV260: VV436 <= 0
 VV261: VV437 <= 768
 VV262: VV438 <= 787
 VV263: VV439 <= 890
 VV264: VV440 <= 844
 VV265: VV441 <= 914
 VV266: VV442 <= 922
 VV267: VV443 <= 775
 VV268: VV444 <= 616
 VV269: VV445 <= 850
 VV270: VV446 <= 832
 VV271: VV447 <= 770
 VV272: VV448 <= 450
 VV273: VV449 <= 9
 VV274: VV450 <= 60
 VV275: VV451 <= 685
Bounds
 0 <= VV276 <= 1
 0 <= VV277 <= 2
 0 <= VV278 <= 1
      VV279 = 0
 0 <= VV280 <= 1
 0 <= VV281 <= 1
 0 <= VV282 <= 2
 0 <= VV283 <= 1
 0 <= VV284 <= 1
      VV285 = 0
 0 <= VV286 <= 1
 0 <= VV287 <= 1
 0 <= VV288 <= 3
 0 <= VV289 <= 2
 0 <= VV290 <= 2
 0 <= VV291 <= 1
 0 <= VV292 <= 1
 0 <= VV293 <= 2
 0 <= VV294 <= 2
 0 <= VV295 <= 2
 0 <= VV296 <= 1
 0 <= VV297 <= 1
      VV298 = 0
 0 <= VV299 <= 1
 0 <= VV300 <= 3
 0 <= VV301 <= 1
      VV302 = 0
 0 <= VV303 <= 1
      VV304 = 0
 0 <= VV305 <= 1
 0 <= VV306 <= 1
 0 <= VV307 <= 1
 0 <= VV308 <= 3
 0 <= VV309 <= 2
      VV310 = 0
 0 <= VV311 <= 1
 0 <= VV312 <= 1
 0 <= VV313 <= 1
 0 <= VV314 <= 1
 0 <= VV315 <= 2
 0 <= VV316 <= 1
 0 <= VV317 <= 1
 0 <= VV318 <= 1
 0 <= VV319 <= 1
 0 <= VV320 <= 1
 0 <= VV321 <= 1
 0 <= VV322 <= 1
 0 <= VV323 <= 3
 0 <= VV324 <= 1
 0 <= VV325 <= 1
 0 <= VV326 <= 5
 0 <= VV327 <= 1
 0 <= VV328 <= 1
      VV329 = 0
 0 <= VV330 <= 1
 0 <= VV331 <= 4
 0 <= VV332 <= 3
 0 <= VV333 <= 1
 0 <= VV334 <= 1
 0 <= VV335 <= 1
 0 <= VV336 <= 1
      VV337 = 0
 0 <= VV338 <= 1
 0 <= VV339 <= 1
 0 <= VV340 <= 1
 0 <= VV341 <= 1
 0 <= VV342 <= 2
 0 <= VV343 <= 1
 0 <= VV344 <= 3
 0 <= VV345 <= 4
 0 <= VV346 <= 2
 0 <= VV347 <= 1
 0 <= VV348 <= 1
 0 <= VV349 <= 3
 0 <= VV350 <= 1
 0 <= VV351 <= 1
 0 <= VV352 <= 1
 0 <= VV353 <= 1
 0 <= VV354 <= 1
 0 <= VV355 <= 4
 0 <= VV356 <= 1
 0 <= VV357 <= 1
 0 <= VV358 <= 1
 0 <= VV359 <= 1
 0 <= VV360 <= 1
 0 <= VV361 <= 2
 0 <= VV362 <= 2
 0 <= VV363 <= 2
 0 <= VV364 <= 1
 0 <= VV365 <= 1
 0 <= VV366 <= 1
 0 <= VV367 <= 1
 0 <= VV368 <= 1
 0 <= VV369 <= 1
 0 <= VV370 <= 1
 0 <= VV371 <= 1
 0 <= VV372 <= 1
 0 <= VV373 <= 1
 0 <= VV374 <= 1
 0 <= VV375 <= 1
 0 <= VV376 <= 1
 0 <= VV377 <= 1
 0 <= VV378 <= 1
 0 <= VV379 <= 1
 0 <= VV380 <= 1
 0 <= VV381 <= 1
 0 <= VV382 <= 1
 0 <= VV383 <= 1
 0 <= VV384 <= 1
 0 <= VV385 <= 1
 0 <= VV386 <= 1
 0 <= VV387 <= 1
 0 <= VV388 <= 1
 0 <= VV389 <= 1
 0 <= VV390 <= 1
 0 <= VV391 <= 1
 0 <= VV392 <= 1
 0 <= VV393 <= 1
 0 <= VV394 <= 1
 0 <= VV395 <= 1
 0 <= VV396 <= 1
 0 <= VV397 <= 1
 0 <= VV398 <= 1
 0 <= VV399 <= 1
 0 <= VV400 <= 1
 0 <= VV401 <= 1
 0 <= VV402 <= 1
 0 <= VV403 <= 1
 0 <= VV404 <= 1
 0 <= VV405 <= 1
 0 <= VV406 <= 1
 0 <= VV407 <= 1
 0 <= VV408 <= 1
 0 <= VV409 <= 1
 0 <= VV410 <= 1
 0 <= VV411 <= 1
 0 <= VV412 <= 1
 0 <= VV413 <= 1
 0 <= VV414 <= 1
 0 <= VV415 <= 1
 0 <= VV416 <= 1
 0 <= VV417 <= 1
 0 <= VV418 <= 1
 0 <= VV419 <= 1
 0 <= VV420 <= 1
 0 <= VV421 <= 1
 0 <= VV422 <= 1
 0 <= VV423 <= 1
 0 <= VV424 <= 1
 0 <= VV425 <= 1
 0 <= VV426 <= 1
 0 <= VV427 <= 1
 0 <= VV428 <= 1
 0 <= VV429 <= 1
 0 <= VV430 <= 1
 0 <= VV431 <= 1
 0 <= VV432 <= 1
 0 <= VV433 <= 1
 0 <= VV434 <= 1
 0 <= VV435 <= 1
 0 <= VV436 <= 1
 0 <= VV437 <= 1
 0 <= VV438 <= 1
 0 <= VV439 <= 1
 0 <= VV440 <= 1
 0 <= VV441 <= 1
 0 <= VV442 <= 1
 0 <= VV443 <= 1
 0 <= VV444 <= 1
 0 <= VV445 <= 1
 0 <= VV446 <= 1
 0 <= VV447 <= 1
 0 <= VV448 <= 1
 0 <= VV449 <= 1
 0 <= VV450 <= 1
 0 <= VV451 <= 1
 20300 <= VV540 <= 20800
 0 <= VV541 <= 1
 0 <= VV542 <= 1
 0 <= VV543 <= 1
 0 <= VV544 <= 1
 0 <= VV545 <= 1
 0 <= VV546 <= 1
 0 <= VV547 <= 1
 0 <= VV548 <= 1
 0 <= VV549 <= 1
 0 <= VV550 <= 1
 0 <= VV551 <= 1
 0 <= VV552 <= 1
 0 <= VV553 <= 1
 0 <= VV554 <= 1
 0 <= VV555 <= 1
 0 <= VV556 <= 1
 0 <= VV557 <= 1
 0 <= VV558 <= 1
 0 <= VV559 <= 1
 0 <= VV560 <= 1
 0 <= VV561 <= 1
 0 <= VV562 <= 1
 0 <= VV563 <= 1
 0 <= VV564 <= 1
 0 <= VV565 <= 1
 0 <= VV566 <= 1
 0 <= VV567 <= 1
 0 <= VV568 <= 1
 0 <= VV569 <= 1
 0 <= VV570 <= 1
 0 <= VV571 <= 1
 0 <= VV572 <= 1
 0 <= VV573 <= 1
 0 <= VV574 <= 1
 0 <= VV575 <= 1
 0 <= VV576 <= 1
 0 <= VV577 <= 1
 0 <= VV578 <= 1
 0 <= VV579 <= 1
 0 <= VV580 <= 1
 0 <= VV581 <= 1
 0 <= VV582 <= 1
 0 <= VV583 <= 1
 0 <= VV584 <= 1
 0 <= VV585 <= 1
 0 <= VV586 <= 1
 0 <= VV587 <= 1
 0 <= VV588 <= 1
 0 <= VV589 <= 1
 0 <= VV590 <= 1
 0 <= VV591 <= 1
 0 <= VV592 <= 1
 0 <= VV593 <= 1
 0 <= VV594 <= 1
 0 <= VV595 <= 1
 0 <= VV596 <= 1
 0 <= VV597 <= 1
 0 <= VV598 <= 1
 0 <= VV599 <= 1
 0 <= VV600 <= 1
 0 <= VV601 <= 1
 0 <= VV602 <= 1
 0 <= VV603 <= 1
 0 <= VV604 <= 1
 0 <= VV605 <= 1
 0 <= VV606 <= 1
 0 <= VV607 <= 1
 0 <= VV608 <= 1
 0 <= VV609 <= 1
 0 <= VV610 <= 1
 0 <= VV611 <= 1
 0 <= VV612 <= 1
 0 <= VV613 <= 1
 0 <= VV614 <= 1
 0 <= VV615 <= 1
 0 <= VV616 <= 1
 0 <= VV617 <= 1
 0 <= VV618 <= 1
 0 <= VV619 <= 1
 0 <= VV620 <= 1
 0 <= VV621 <= 1
 0 <= VV622 <= 1
 0 <= VV623 <= 1
 0 <= VV624 <= 1
 0 <= VV625 <= 1
 0 <= VV626 <= 1
 0 <= VV627 <= 1
 0 <= VV628 <= 1
Binaries
 VV276  VV278  VV280  VV281  VV283  VV284  VV286  VV287  VV291  VV292  VV296 
 VV297  VV299  VV301  VV303  VV305  VV306  VV307  VV311  VV312  VV313  VV314 
 VV316  VV317  VV318  VV319  VV320  VV321  VV322  VV324  VV325  VV327  VV328 
 VV330  VV333  VV334  VV335  VV336  VV338  VV339  VV340  VV341  VV343  VV347 
 VV348  VV350  VV351  VV352  VV353  VV354  VV356  VV357  VV358  VV359  VV360 
 VV364  VV365  VV366  VV367  VV368  VV369  VV370  VV371  VV372  VV373  VV374 
 VV375  VV376  VV377  VV378  VV379  VV380  VV381  VV382  VV383  VV384  VV385 
 VV386  VV387  VV388  VV389  VV390  VV391  VV392  VV393  VV394  VV395  VV396 
 VV397  VV398  VV399  VV400  VV401  VV402  VV403  VV404  VV405  VV406  VV407 
 VV408  VV409  VV410  VV411  VV412  VV413  VV414  VV415  VV416  VV417  VV418 
 VV419  VV420  VV421  VV422  VV423  VV424  VV425  VV426  VV427  VV428  VV429 
 VV430  VV431  VV432  VV433  VV434  VV435  VV436  VV437  VV438  VV439  VV440 
 VV441  VV442  VV443  VV444  VV445  VV446  VV447  VV448  VV449  VV450  VV451 
 VV541  VV542  VV543  VV544  VV545  VV546  VV547  VV548  VV549  VV550  VV551 
 VV552  VV553  VV554  VV555  VV556  VV557  VV558  VV559  VV560  VV561  VV562 
 VV563  VV564  VV565  VV566  VV567  VV568  VV569  VV570  VV571  VV572  VV573 
 VV574  VV575  VV576  VV577  VV578  VV579  VV580  VV581  VV582  VV583  VV584 
 VV585  VV586  VV587  VV588  VV589  VV590  VV591  VV592  VV593  VV594  VV595 
 VV596  VV597  VV598  VV599  VV600  VV601  VV602  VV603  VV604  VV605  VV606 
 VV607  VV608  VV609  VV610  VV611  VV612  VV613  VV614  VV615  VV616  VV617 
 VV618  VV619  VV620  VV621  VV622  VV623  VV624  VV625  VV626  VV627  VV628 
Generals
 VV277  VV279  VV282  VV285  VV288  VV289  VV290  VV293  VV294  VV295  VV298 
 VV300  VV302  VV304  VV308  VV309  VV310  VV315  VV323  VV326  VV329  VV331 
 VV332  VV337  VV342  VV344  VV345  VV346  VV349  VV355  VV361  VV362  VV363 
End
